instances/shortest_path/discrete_knapsack_uncertainty/nohadani_6_17.lp
\ Model nohadani_6_17
\ LP format - for model browsing. Use MPS format to capture full model detail.
\ Signature: 0x9d6f60db6d04e09d
Minimize
  49 y[0,1] + 65.51335741663679 y[0,2] + 65.39113089708727 y[0,3]
   + 56.61271941887264 y[0,4] + 70.66116330771806 y[0,5] + 49 y[1,0]
   + 64.25729530566937 y[1,3] + 17.72004514666935 y[1,4]
   + 65.51335741663679 y[2,0] + 12.64911064067352 y[2,3]
   + 61.71709649683789 y[2,4] + 46.01086828130936 y[2,5]
   + 65.39113089708727 y[3,0] + 64.25729530566937 y[3,1]
   + 12.64911064067352 y[3,2] + 51.31276644267 y[3,4]
   + 58.07753438292642 y[3,5] + 56.61271941887264 y[4,0]
   + 17.72004514666935 y[4,1] + 61.71709649683789 y[4,2]
   + 51.31276644267 y[4,3] + 70.66116330771806 y[5,0]
   + 46.01086828130936 y[5,2] + 58.07753438292642 y[5,3] + x[0,1] + x[0,2]
   + x[0,3] + x[0,4] + x[0,5] + x[1,0] + x[1,3] + x[1,4] + x[2,0] + x[2,3]
   + x[2,4] + x[2,5] + x[3,0] + x[3,1] + x[3,2] + x[3,4] + x[3,5] + x[4,0]
   + x[4,1] + x[4,2] + x[4,3] + x[5,0] + x[5,2] + x[5,3] + 4.9 r[0,1]
   + 6.55133574166368 r[0,2] + 6.539113089708727 r[0,3]
   + 5.661271941887264 r[0,4] + 7.066116330771806 r[0,5] + 4.9 r[1,0]
   + 6.425729530566938 r[1,3] + 1.772004514666935 r[1,4]
   + 6.55133574166368 r[2,0] + 1.264911064067352 r[2,3]
   + 6.171709649683789 r[2,4] + 4.601086828130937 r[2,5]
   + 6.539113089708727 r[3,0] + 6.425729530566938 r[3,1]
   + 1.264911064067352 r[3,2] + 5.131276644267 r[3,4]
   + 5.807753438292642 r[3,5] + 5.661271941887264 r[4,0]
   + 1.772004514666935 r[4,1] + 6.171709649683789 r[4,2]
   + 5.131276644267 r[4,3] + 7.066116330771806 r[5,0]
   + 4.601086828130937 r[5,2] + 5.807753438292642 r[5,3]
Subject To
 flow_cons_inner_nodes[0]: - y[0,1] - y[0,2] - y[0,3] - y[0,4] - y[0,5]
   + y[1,0] + y[2,0] + y[3,0] + y[4,0] + y[5,0] = 0
 flow_cons_inner_nodes[2]: y[0,2] - y[2,0] - y[2,3] - y[2,4] - y[2,5]
   + y[3,2] + y[4,2] + y[5,2] = 0
 flow_cons_inner_nodes[3]: y[0,3] + y[1,3] + y[2,3] - y[3,0] - y[3,1]
   - y[3,2] - y[3,4] - y[3,5] + y[4,3] + y[5,3] = 0
 flow_cons_inner_nodes[4]: y[0,4] + y[1,4] + y[2,4] + y[3,4] - y[4,0]
   - y[4,1] - y[4,2] - y[4,3] = 0
 flow_cons_source: - y[0,1] + y[1,0] + y[1,3] + y[1,4] - y[3,1] - y[4,1]
   = 1
 flow_cons_target: y[0,5] + y[2,5] + y[3,5] - y[5,0] - y[5,2] - y[5,3] = 1
 primal_lower: 0.2152920284636083 x[0,1] + 3.33482527258837 x[0,2]
   + 2.331879501694357 x[0,3] + 0.6329109836920453 x[0,4]
   + 4.463064627707443 x[0,5] + 2.454120198360096 x[1,0]
   + 2.707166697610724 x[1,3] + 2.644846026748704 x[1,4]
   + 3.269638810833774 x[2,0] + 1.466878724235665 x[2,3]
   + 0.4794520179049509 x[2,4] + 0.0328824614809543 x[2,5]
   + 2.337666946096332 x[3,0] + 1.672775557831825 x[3,1]
   + 3.395559631649931 x[3,2] + 3.106839136923372 x[3,4]
   + 3.184648624637965 x[3,5] + 1.495234502585198 x[4,0]
   + 3.769695996378994 x[4,1] + 0.9927268222489882 x[4,2]
   + 2.616444351498885 x[4,3] + 2.038599373163358 x[5,0]
   + 3.985640741975111 x[5,2] + 2.76754772155618 x[5,3] + 85 u[0,1]
   + 86 u[0,2] + 8 u[0,3] + 25 u[0,4] + 58 u[0,5] + 79 u[1,0] + 27 u[1,3]
   + 77 u[1,4] + 43 u[2,0] + 96 u[2,3] + u[2,4] + 89 u[2,5] + 54 u[3,0]
   + 10 u[3,1] + 10 u[3,2] + 38 u[3,4] + 51 u[3,5] + 54 u[4,0] + 59 u[4,1]
   + 40 u[4,2] + 79 u[4,3] + 93 u[5,0] + 14 u[5,2] + 52 u[5,3] <= 111
 mccormick1[0,1]: - u[0,1] + r[0,1] <= 0
 mccormick1[0,2]: - u[0,2] + r[0,2] <= 0
 mccormick1[0,3]: - u[0,3] + r[0,3] <= 0
 mccormick1[0,4]: - u[0,4] + r[0,4] <= 0
 mccormick1[0,5]: - u[0,5] + r[0,5] <= 0
 mccormick1[1,0]: - u[1,0] + r[1,0] <= 0
 mccormick1[1,3]: - u[1,3] + r[1,3] <= 0
 mccormick1[1,4]: - u[1,4] + r[1,4] <= 0
 mccormick1[2,0]: - u[2,0] + r[2,0] <= 0
 mccormick1[2,3]: - u[2,3] + r[2,3] <= 0
 mccormick1[2,4]: - u[2,4] + r[2,4] <= 0
 mccormick1[2,5]: - u[2,5] + r[2,5] <= 0
 mccormick1[3,0]: - u[3,0] + r[3,0] <= 0
 mccormick1[3,1]: - u[3,1] + r[3,1] <= 0
 mccormick1[3,2]: - u[3,2] + r[3,2] <= 0
 mccormick1[3,4]: - u[3,4] + r[3,4] <= 0
 mccormick1[3,5]: - u[3,5] + r[3,5] <= 0
 mccormick1[4,0]: - u[4,0] + r[4,0] <= 0
 mccormick1[4,1]: - u[4,1] + r[4,1] <= 0
 mccormick1[4,2]: - u[4,2] + r[4,2] <= 0
 mccormick1[4,3]: - u[4,3] + r[4,3] <= 0
 mccormick1[5,0]: - u[5,0] + r[5,0] <= 0
 mccormick1[5,2]: - u[5,2] + r[5,2] <= 0
 mccormick1[5,3]: - u[5,3] + r[5,3] <= 0
 mccormick2[0,1]: - y[0,1] + r[0,1] <= 0
 mccormick2[0,2]: - y[0,2] + r[0,2] <= 0
 mccormick2[0,3]: - y[0,3] + r[0,3] <= 0
 mccormick2[0,4]: - y[0,4] + r[0,4] <= 0
 mccormick2[0,5]: - y[0,5] + r[0,5] <= 0
 mccormick2[1,0]: - y[1,0] + r[1,0] <= 0
 mccormick2[1,3]: - y[1,3] + r[1,3] <= 0
 mccormick2[1,4]: - y[1,4] + r[1,4] <= 0
 mccormick2[2,0]: - y[2,0] + r[2,0] <= 0
 mccormick2[2,3]: - y[2,3] + r[2,3] <= 0
 mccormick2[2,4]: - y[2,4] + r[2,4] <= 0
 mccormick2[2,5]: - y[2,5] + r[2,5] <= 0
 mccormick2[3,0]: - y[3,0] + r[3,0] <= 0
 mccormick2[3,1]: - y[3,1] + r[3,1] <= 0
 mccormick2[3,2]: - y[3,2] + r[3,2] <= 0
 mccormick2[3,4]: - y[3,4] + r[3,4] <= 0
 mccormick2[3,5]: - y[3,5] + r[3,5] <= 0
 mccormick2[4,0]: - y[4,0] + r[4,0] <= 0
 mccormick2[4,1]: - y[4,1] + r[4,1] <= 0
 mccormick2[4,2]: - y[4,2] + r[4,2] <= 0
 mccormick2[4,3]: - y[4,3] + r[4,3] <= 0
 mccormick2[5,0]: - y[5,0] + r[5,0] <= 0
 mccormick2[5,2]: - y[5,2] + r[5,2] <= 0
 mccormick2[5,3]: - y[5,3] + r[5,3] <= 0
 mccormick3[0,1]: - y[0,1] - u[0,1] + r[0,1] >= -1
 mccormick3[0,2]: - y[0,2] - u[0,2] + r[0,2] >= -1
 mccormick3[0,3]: - y[0,3] - u[0,3] + r[0,3] >= -1
 mccormick3[0,4]: - y[0,4] - u[0,4] + r[0,4] >= -1
 mccormick3[0,5]: - y[0,5] - u[0,5] + r[0,5] >= -1
 mccormick3[1,0]: - y[1,0] - u[1,0] + r[1,0] >= -1
 mccormick3[1,3]: - y[1,3] - u[1,3] + r[1,3] >= -1
 mccormick3[1,4]: - y[1,4] - u[1,4] + r[1,4] >= -1
 mccormick3[2,0]: - y[2,0] - u[2,0] + r[2,0] >= -1
 mccormick3[2,3]: - y[2,3] - u[2,3] + r[2,3] >= -1
 mccormick3[2,4]: - y[2,4] - u[2,4] + r[2,4] >= -1
 mccormick3[2,5]: - y[2,5] - u[2,5] + r[2,5] >= -1
 mccormick3[3,0]: - y[3,0] - u[3,0] + r[3,0] >= -1
 mccormick3[3,1]: - y[3,1] - u[3,1] + r[3,1] >= -1
 mccormick3[3,2]: - y[3,2] - u[3,2] + r[3,2] >= -1
 mccormick3[3,4]: - y[3,4] - u[3,4] + r[3,4] >= -1
 mccormick3[3,5]: - y[3,5] - u[3,5] + r[3,5] >= -1
 mccormick3[4,0]: - y[4,0] - u[4,0] + r[4,0] >= -1
 mccormick3[4,1]: - y[4,1] - u[4,1] + r[4,1] >= -1
 mccormick3[4,2]: - y[4,2] - u[4,2] + r[4,2] >= -1
 mccormick3[4,3]: - y[4,3] - u[4,3] + r[4,3] >= -1
 mccormick3[5,0]: - y[5,0] - u[5,0] + r[5,0] >= -1
 mccormick3[5,2]: - y[5,2] - u[5,2] + r[5,2] >= -1
 mccormick3[5,3]: - y[5,3] - u[5,3] + r[5,3] >= -1
Bounds
Binaries
 y[0,1] y[0,2] y[0,3] y[0,4] y[0,5] y[1,0] y[1,3] y[1,4] y[2,0] y[2,3]
 y[2,4] y[2,5] y[3,0] y[3,1] y[3,2] y[3,4] y[3,5] y[4,0] y[4,1] y[4,2]
 y[4,3] y[5,0] y[5,2] y[5,3] x[0,1] x[0,2] x[0,3] x[0,4] x[0,5] x[1,0]
 x[1,3] x[1,4] x[2,0] x[2,3] x[2,4] x[2,5] x[3,0] x[3,1] x[3,2] x[3,4]
 x[3,5] x[4,0] x[4,1] x[4,2] x[4,3] x[5,0] x[5,2] x[5,3] u[0,1] u[0,2]
 u[0,3] u[0,4] u[0,5] u[1,0] u[1,3] u[1,4] u[2,0] u[2,3] u[2,4] u[2,5]
 u[3,0] u[3,1] u[3,2] u[3,4] u[3,5] u[4,0] u[4,1] u[4,2] u[4,3] u[5,0]
 u[5,2] u[5,3] r[0,1] r[0,2] r[0,3] r[0,4] r[0,5] r[1,0] r[1,3] r[1,4]
 r[2,0] r[2,3] r[2,4] r[2,5] r[3,0] r[3,1] r[3,2] r[3,4] r[3,5] r[4,0]
 r[4,1] r[4,2] r[4,3] r[5,0] r[5,2] r[5,3]
End
