instances/shortest_path/discrete_knapsack_uncertainty/nohadani_6_17.mps
* Signature: 0x9d6f60db6d04e09d
NAME nohadani_6_17
ROWS
 N  OBJ
 E  flow_cons_inner_nodes[0]
 E  flow_cons_inner_nodes[2]
 E  flow_cons_inner_nodes[3]
 E  flow_cons_inner_nodes[4]
 E  flow_cons_source
 E  flow_cons_target
 L  primal_lower
 L  mccormick1[0,1]
 L  mccormick1[0,2]
 L  mccormick1[0,3]
 L  mccormick1[0,4]
 L  mccormick1[0,5]
 L  mccormick1[1,0]
 L  mccormick1[1,3]
 L  mccormick1[1,4]
 L  mccormick1[2,0]
 L  mccormick1[2,3]
 L  mccormick1[2,4]
 L  mccormick1[2,5]
 L  mccormick1[3,0]
 L  mccormick1[3,1]
 L  mccormick1[3,2]
 L  mccormick1[3,4]
 L  mccormick1[3,5]
 L  mccormick1[4,0]
 L  mccormick1[4,1]
 L  mccormick1[4,2]
 L  mccormick1[4,3]
 L  mccormick1[5,0]
 L  mccormick1[5,2]
 L  mccormick1[5,3]
 L  mccormick2[0,1]
 L  mccormick2[0,2]
 L  mccormick2[0,3]
 L  mccormick2[0,4]
 L  mccormick2[0,5]
 L  mccormick2[1,0]
 L  mccormick2[1,3]
 L  mccormick2[1,4]
 L  mccormick2[2,0]
 L  mccormick2[2,3]
 L  mccormick2[2,4]
 L  mccormick2[2,5]
 L  mccormick2[3,0]
 L  mccormick2[3,1]
 L  mccormick2[3,2]
 L  mccormick2[3,4]
 L  mccormick2[3,5]
 L  mccormick2[4,0]
 L  mccormick2[4,1]
 L  mccormick2[4,2]
 L  mccormick2[4,3]
 L  mccormick2[5,0]
 L  mccormick2[5,2]
 L  mccormick2[5,3]
 G  mccormick3[0,1]
 G  mccormick3[0,2]
 G  mccormick3[0,3]
 G  mccormick3[0,4]
 G  mccormick3[0,5]
 G  mccormick3[1,0]
 G  mccormick3[1,3]
 G  mccormick3[1,4]
 G  mccormick3[2,0]
 G  mccormick3[2,3]
 G  mccormick3[2,4]
 G  mccormick3[2,5]
 G  mccormick3[3,0]
 G  mccormick3[3,1]
 G  mccormick3[3,2]
 G  mccormick3[3,4]
 G  mccormick3[3,5]
 G  mccormick3[4,0]
 G  mccormick3[4,1]
 G  mccormick3[4,2]
 G  mccormick3[4,3]
 G  mccormick3[5,0]
 G  mccormick3[5,2]
 G  mccormick3[5,3]
COLUMNS
    MARKER    'MARKER'                 'INTORG'
    y[0,1]    OBJ       49
    y[0,1]    flow_cons_inner_nodes[0]  -1
    y[0,1]    flow_cons_source  -1
    y[0,1]    mccormick2[0,1]  -1
    y[0,1]    mccormick3[0,1]  -1
    y[0,2]    OBJ       65.5133574166368
    y[0,2]    flow_cons_inner_nodes[0]  -1
    y[0,2]    flow_cons_inner_nodes[2]  1
    y[0,2]    mccormick2[0,2]  -1
    y[0,2]    mccormick3[0,2]  -1
    y[0,3]    OBJ       6.5391130897087265e+01
    y[0,3]    flow_cons_inner_nodes[0]  -1
    y[0,3]    flow_cons_inner_nodes[3]  1
    y[0,3]    mccormick2[0,3]  -1
    y[0,3]    mccormick3[0,3]  -1
    y[0,4]    OBJ       5.6612719418872643e+01
    y[0,4]    flow_cons_inner_nodes[0]  -1
    y[0,4]    flow_cons_inner_nodes[4]  1
    y[0,4]    mccormick2[0,4]  -1
    y[0,4]    mccormick3[0,4]  -1
    y[0,5]    OBJ       7.0661163307718056e+01
    y[0,5]    flow_cons_inner_nodes[0]  -1
    y[0,5]    flow_cons_target  1
    y[0,5]    mccormick2[0,5]  -1
    y[0,5]    mccormick3[0,5]  -1
    y[1,0]    OBJ       49
    y[1,0]    flow_cons_inner_nodes[0]  1
    y[1,0]    flow_cons_source  1
    y[1,0]    mccormick2[1,0]  -1
    y[1,0]    mccormick3[1,0]  -1
    y[1,3]    OBJ       6.4257295305669373e+01
    y[1,3]    flow_cons_inner_nodes[3]  1
    y[1,3]    flow_cons_source  1
    y[1,3]    mccormick2[1,3]  -1
    y[1,3]    mccormick3[1,3]  -1
    y[1,4]    OBJ       1.7720045146669349e+01
    y[1,4]    flow_cons_inner_nodes[4]  1
    y[1,4]    flow_cons_source  1
    y[1,4]    mccormick2[1,4]  -1
    y[1,4]    mccormick3[1,4]  -1
    y[2,0]    OBJ       65.5133574166368
    y[2,0]    flow_cons_inner_nodes[0]  1
    y[2,0]    flow_cons_inner_nodes[2]  -1
    y[2,0]    mccormick2[2,0]  -1
    y[2,0]    mccormick3[2,0]  -1
    y[2,3]    OBJ       1.2649110640673518e+01
    y[2,3]    flow_cons_inner_nodes[2]  -1
    y[2,3]    flow_cons_inner_nodes[3]  1
    y[2,3]    mccormick2[2,3]  -1
    y[2,3]    mccormick3[2,3]  -1
    y[2,4]    OBJ       6.1717096496837890e+01
    y[2,4]    flow_cons_inner_nodes[2]  -1
    y[2,4]    flow_cons_inner_nodes[4]  1
    y[2,4]    mccormick2[2,4]  -1
    y[2,4]    mccormick3[2,4]  -1
    y[2,5]    OBJ       4.6010868281309364e+01
    y[2,5]    flow_cons_inner_nodes[2]  -1
    y[2,5]    flow_cons_target  1
    y[2,5]    mccormick2[2,5]  -1
    y[2,5]    mccormick3[2,5]  -1
    y[3,0]    OBJ       6.5391130897087265e+01
    y[3,0]    flow_cons_inner_nodes[0]  1
    y[3,0]    flow_cons_inner_nodes[3]  -1
    y[3,0]    mccormick2[3,0]  -1
    y[3,0]    mccormick3[3,0]  -1
    y[3,1]    OBJ       6.4257295305669373e+01
    y[3,1]    flow_cons_inner_nodes[3]  -1
    y[3,1]    flow_cons_source  -1
    y[3,1]    mccormick2[3,1]  -1
    y[3,1]    mccormick3[3,1]  -1
    y[3,2]    OBJ       1.2649110640673518e+01
    y[3,2]    flow_cons_inner_nodes[2]  1
    y[3,2]    flow_cons_inner_nodes[3]  -1
    y[3,2]    mccormick2[3,2]  -1
    y[3,2]    mccormick3[3,2]  -1
    y[3,4]    OBJ       51.31276644267
    y[3,4]    flow_cons_inner_nodes[3]  -1
    y[3,4]    flow_cons_inner_nodes[4]  1
    y[3,4]    mccormick2[3,4]  -1
    y[3,4]    mccormick3[3,4]  -1
    y[3,5]    OBJ       5.8077534382926416e+01
    y[3,5]    flow_cons_inner_nodes[3]  -1
    y[3,5]    flow_cons_target  1
    y[3,5]    mccormick2[3,5]  -1
    y[3,5]    mccormick3[3,5]  -1
    y[4,0]    OBJ       5.6612719418872643e+01
    y[4,0]    flow_cons_inner_nodes[0]  1
    y[4,0]    flow_cons_inner_nodes[4]  -1
    y[4,0]    mccormick2[4,0]  -1
    y[4,0]    mccormick3[4,0]  -1
    y[4,1]    OBJ       1.7720045146669349e+01
    y[4,1]    flow_cons_inner_nodes[4]  -1
    y[4,1]    flow_cons_source  -1
    y[4,1]    mccormick2[4,1]  -1
    y[4,1]    mccormick3[4,1]  -1
    y[4,2]    OBJ       6.1717096496837890e+01
    y[4,2]    flow_cons_inner_nodes[2]  1
    y[4,2]    flow_cons_inner_nodes[4]  -1
    y[4,2]    mccormick2[4,2]  -1
    y[4,2]    mccormick3[4,2]  -1
    y[4,3]    OBJ       51.31276644267
    y[4,3]    flow_cons_inner_nodes[3]  1
    y[4,3]    flow_cons_inner_nodes[4]  -1
    y[4,3]    mccormick2[4,3]  -1
    y[4,3]    mccormick3[4,3]  -1
    y[5,0]    OBJ       7.0661163307718056e+01
    y[5,0]    flow_cons_inner_nodes[0]  1
    y[5,0]    flow_cons_target  -1
    y[5,0]    mccormick2[5,0]  -1
    y[5,0]    mccormick3[5,0]  -1
    y[5,2]    OBJ       4.6010868281309364e+01
    y[5,2]    flow_cons_inner_nodes[2]  1
    y[5,2]    flow_cons_target  -1
    y[5,2]    mccormick2[5,2]  -1
    y[5,2]    mccormick3[5,2]  -1
    y[5,3]    OBJ       5.8077534382926416e+01
    y[5,3]    flow_cons_inner_nodes[3]  1
    y[5,3]    flow_cons_target  -1
    y[5,3]    mccormick2[5,3]  -1
    y[5,3]    mccormick3[5,3]  -1
    x[0,1]    OBJ       1
    x[0,1]    primal_lower  2.1529202846360834e-01
    x[0,2]    OBJ       1
    x[0,2]    primal_lower  3.33482527258837
    x[0,3]    OBJ       1
    x[0,3]    primal_lower  2.3318795016943565e+00
    x[0,4]    OBJ       1
    x[0,4]    primal_lower  6.3291098369204535e-01
    x[0,5]    OBJ       1
    x[0,5]    primal_lower  4.4630646277074435e+00
    x[1,0]    OBJ       1
    x[1,0]    primal_lower  2.4541201983600964e+00
    x[1,3]    OBJ       1
    x[1,3]    primal_lower  2.7071666976107238e+00
    x[1,4]    OBJ       1
    x[1,4]    primal_lower  2.6448460267487044e+00
    x[2,0]    OBJ       1
    x[2,0]    primal_lower  3.2696388108337735e+00
    x[2,3]    OBJ       1
    x[2,3]    primal_lower  1.4668787242356651e+00
    x[2,4]    OBJ       1
    x[2,4]    primal_lower  4.7945201790495090e-01
    x[2,5]    OBJ       1
    x[2,5]    primal_lower  3.2882461480954250e-02
    x[3,0]    OBJ       1
    x[3,0]    primal_lower  2.3376669460963315e+00
    x[3,1]    OBJ       1
    x[3,1]    primal_lower  1.6727755578318251e+00
    x[3,2]    OBJ       1
    x[3,2]    primal_lower  3.3955596316499315e+00
    x[3,4]    OBJ       1
    x[3,4]    primal_lower  3.1068391369233721e+00
    x[3,5]    OBJ       1
    x[3,5]    primal_lower  3.1846486246379651e+00
    x[4,0]    OBJ       1
    x[4,0]    primal_lower  1.4952345025851983e+00
    x[4,1]    OBJ       1
    x[4,1]    primal_lower  3.7696959963789936e+00
    x[4,2]    OBJ       1
    x[4,2]    primal_lower  9.9272682224898823e-01
    x[4,3]    OBJ       1
    x[4,3]    primal_lower  2.6164443514988851e+00
    x[5,0]    OBJ       1
    x[5,0]    primal_lower  2.0385993731633585e+00
    x[5,2]    OBJ       1
    x[5,2]    primal_lower  3.9856407419751108e+00
    x[5,3]    OBJ       1
    x[5,3]    primal_lower  2.76754772155618
    u[0,1]    primal_lower  85
    u[0,1]    mccormick1[0,1]  -1
    u[0,1]    mccormick3[0,1]  -1
    u[0,2]    primal_lower  86
    u[0,2]    mccormick1[0,2]  -1
    u[0,2]    mccormick3[0,2]  -1
    u[0,3]    primal_lower  8
    u[0,3]    mccormick1[0,3]  -1
    u[0,3]    mccormick3[0,3]  -1
    u[0,4]    primal_lower  25
    u[0,4]    mccormick1[0,4]  -1
    u[0,4]    mccormick3[0,4]  -1
    u[0,5]    primal_lower  58
    u[0,5]    mccormick1[0,5]  -1
    u[0,5]    mccormick3[0,5]  -1
    u[1,0]    primal_lower  79
    u[1,0]    mccormick1[1,0]  -1
    u[1,0]    mccormick3[1,0]  -1
    u[1,3]    primal_lower  27
    u[1,3]    mccormick1[1,3]  -1
    u[1,3]    mccormick3[1,3]  -1
    u[1,4]    primal_lower  77
    u[1,4]    mccormick1[1,4]  -1
    u[1,4]    mccormick3[1,4]  -1
    u[2,0]    primal_lower  43
    u[2,0]    mccormick1[2,0]  -1
    u[2,0]    mccormick3[2,0]  -1
    u[2,3]    primal_lower  96
    u[2,3]    mccormick1[2,3]  -1
    u[2,3]    mccormick3[2,3]  -1
    u[2,4]    primal_lower  1
    u[2,4]    mccormick1[2,4]  -1
    u[2,4]    mccormick3[2,4]  -1
    u[2,5]    primal_lower  89
    u[2,5]    mccormick1[2,5]  -1
    u[2,5]    mccormick3[2,5]  -1
    u[3,0]    primal_lower  54
    u[3,0]    mccormick1[3,0]  -1
    u[3,0]    mccormick3[3,0]  -1
    u[3,1]    primal_lower  10
    u[3,1]    mccormick1[3,1]  -1
    u[3,1]    mccormick3[3,1]  -1
    u[3,2]    primal_lower  10
    u[3,2]    mccormick1[3,2]  -1
    u[3,2]    mccormick3[3,2]  -1
    u[3,4]    primal_lower  38
    u[3,4]    mccormick1[3,4]  -1
    u[3,4]    mccormick3[3,4]  -1
    u[3,5]    primal_lower  51
    u[3,5]    mccormick1[3,5]  -1
    u[3,5]    mccormick3[3,5]  -1
    u[4,0]    primal_lower  54
    u[4,0]    mccormick1[4,0]  -1
    u[4,0]    mccormick3[4,0]  -1
    u[4,1]    primal_lower  59
    u[4,1]    mccormick1[4,1]  -1
    u[4,1]    mccormick3[4,1]  -1
    u[4,2]    primal_lower  40
    u[4,2]    mccormick1[4,2]  -1
    u[4,2]    mccormick3[4,2]  -1
    u[4,3]    primal_lower  79
    u[4,3]    mccormick1[4,3]  -1
    u[4,3]    mccormick3[4,3]  -1
    u[5,0]    primal_lower  93
    u[5,0]    mccormick1[5,0]  -1
    u[5,0]    mccormick3[5,0]  -1
    u[5,2]    primal_lower  14
    u[5,2]    mccormick1[5,2]  -1
    u[5,2]    mccormick3[5,2]  -1
    u[5,3]    primal_lower  52
    u[5,3]    mccormick1[5,3]  -1
    u[5,3]    mccormick3[5,3]  -1
    r[0,1]    OBJ       4.9
    r[0,1]    mccormick1[0,1]  1
    r[0,1]    mccormick2[0,1]  1
    r[0,1]    mccormick3[0,1]  1
    r[0,2]    OBJ       6.55133574166368
    r[0,2]    mccormick1[0,2]  1
    r[0,2]    mccormick2[0,2]  1
    r[0,2]    mccormick3[0,2]  1
    r[0,3]    OBJ       6.5391130897087271e+00
    r[0,3]    mccormick1[0,3]  1
    r[0,3]    mccormick2[0,3]  1
    r[0,3]    mccormick3[0,3]  1
    r[0,4]    OBJ       5.6612719418872643e+00
    r[0,4]    mccormick1[0,4]  1
    r[0,4]    mccormick2[0,4]  1
    r[0,4]    mccormick3[0,4]  1
    r[0,5]    OBJ       7.0661163307718056e+00
    r[0,5]    mccormick1[0,5]  1
    r[0,5]    mccormick2[0,5]  1
    r[0,5]    mccormick3[0,5]  1
    r[1,0]    OBJ       4.9
    r[1,0]    mccormick1[1,0]  1
    r[1,0]    mccormick2[1,0]  1
    r[1,0]    mccormick3[1,0]  1
    r[1,3]    OBJ       6.4257295305669375e+00
    r[1,3]    mccormick1[1,3]  1
    r[1,3]    mccormick2[1,3]  1
    r[1,3]    mccormick3[1,3]  1
    r[1,4]    OBJ       1.7720045146669350e+00
    r[1,4]    mccormick1[1,4]  1
    r[1,4]    mccormick2[1,4]  1
    r[1,4]    mccormick3[1,4]  1
    r[2,0]    OBJ       6.55133574166368
    r[2,0]    mccormick1[2,0]  1
    r[2,0]    mccormick2[2,0]  1
    r[2,0]    mccormick3[2,0]  1
    r[2,3]    OBJ       1.2649110640673520e+00
    r[2,3]    mccormick1[2,3]  1
    r[2,3]    mccormick2[2,3]  1
    r[2,3]    mccormick3[2,3]  1
    r[2,4]    OBJ       6.1717096496837893e+00
    r[2,4]    mccormick1[2,4]  1
    r[2,4]    mccormick2[2,4]  1
    r[2,4]    mccormick3[2,4]  1
    r[2,5]    OBJ       4.6010868281309367e+00
    r[2,5]    mccormick1[2,5]  1
    r[2,5]    mccormick2[2,5]  1
    r[2,5]    mccormick3[2,5]  1
    r[3,0]    OBJ       6.5391130897087271e+00
    r[3,0]    mccormick1[3,0]  1
    r[3,0]    mccormick2[3,0]  1
    r[3,0]    mccormick3[3,0]  1
    r[3,1]    OBJ       6.4257295305669375e+00
    r[3,1]    mccormick1[3,1]  1
    r[3,1]    mccormick2[3,1]  1
    r[3,1]    mccormick3[3,1]  1
    r[3,2]    OBJ       1.2649110640673520e+00
    r[3,2]    mccormick1[3,2]  1
    r[3,2]    mccormick2[3,2]  1
    r[3,2]    mccormick3[3,2]  1
    r[3,4]    OBJ       5.131276644267
    r[3,4]    mccormick1[3,4]  1
    r[3,4]    mccormick2[3,4]  1
    r[3,4]    mccormick3[3,4]  1
    r[3,5]    OBJ       5.8077534382926421e+00
    r[3,5]    mccormick1[3,5]  1
    r[3,5]    mccormick2[3,5]  1
    r[3,5]    mccormick3[3,5]  1
    r[4,0]    OBJ       5.6612719418872643e+00
    r[4,0]    mccormick1[4,0]  1
    r[4,0]    mccormick2[4,0]  1
    r[4,0]    mccormick3[4,0]  1
    r[4,1]    OBJ       1.7720045146669350e+00
    r[4,1]    mccormick1[4,1]  1
    r[4,1]    mccormick2[4,1]  1
    r[4,1]    mccormick3[4,1]  1
    r[4,2]    OBJ       6.1717096496837893e+00
    r[4,2]    mccormick1[4,2]  1
    r[4,2]    mccormick2[4,2]  1
    r[4,2]    mccormick3[4,2]  1
    r[4,3]    OBJ       5.131276644267
    r[4,3]    mccormick1[4,3]  1
    r[4,3]    mccormick2[4,3]  1
    r[4,3]    mccormick3[4,3]  1
    r[5,0]    OBJ       7.0661163307718056e+00
    r[5,0]    mccormick1[5,0]  1
    r[5,0]    mccormick2[5,0]  1
    r[5,0]    mccormick3[5,0]  1
    r[5,2]    OBJ       4.6010868281309367e+00
    r[5,2]    mccormick1[5,2]  1
    r[5,2]    mccormick2[5,2]  1
    r[5,2]    mccormick3[5,2]  1
    r[5,3]    OBJ       5.8077534382926421e+00
    r[5,3]    mccormick1[5,3]  1
    r[5,3]    mccormick2[5,3]  1
    r[5,3]    mccormick3[5,3]  1
    MARKER    'MARKER'                 'INTEND'
RHS
    RHS1      flow_cons_source  1
    RHS1      flow_cons_target  1
    RHS1      primal_lower  111
    RHS1      mccormick3[0,1]  -1
    RHS1      mccormick3[0,2]  -1
    RHS1      mccormick3[0,3]  -1
    RHS1      mccormick3[0,4]  -1
    RHS1      mccormick3[0,5]  -1
    RHS1      mccormick3[1,0]  -1
    RHS1      mccormick3[1,3]  -1
    RHS1      mccormick3[1,4]  -1
    RHS1      mccormick3[2,0]  -1
    RHS1      mccormick3[2,3]  -1
    RHS1      mccormick3[2,4]  -1
    RHS1      mccormick3[2,5]  -1
    RHS1      mccormick3[3,0]  -1
    RHS1      mccormick3[3,1]  -1
    RHS1      mccormick3[3,2]  -1
    RHS1      mccormick3[3,4]  -1
    RHS1      mccormick3[3,5]  -1
    RHS1      mccormick3[4,0]  -1
    RHS1      mccormick3[4,1]  -1
    RHS1      mccormick3[4,2]  -1
    RHS1      mccormick3[4,3]  -1
    RHS1      mccormick3[5,0]  -1
    RHS1      mccormick3[5,2]  -1
    RHS1      mccormick3[5,3]  -1
BOUNDS
 BV BND1      y[0,1]  
 BV BND1      y[0,2]  
 BV BND1      y[0,3]  
 BV BND1      y[0,4]  
 BV BND1      y[0,5]  
 BV BND1      y[1,0]  
 BV BND1      y[1,3]  
 BV BND1      y[1,4]  
 BV BND1      y[2,0]  
 BV BND1      y[2,3]  
 BV BND1      y[2,4]  
 BV BND1      y[2,5]  
 BV BND1      y[3,0]  
 BV BND1      y[3,1]  
 BV BND1      y[3,2]  
 BV BND1      y[3,4]  
 BV BND1      y[3,5]  
 BV BND1      y[4,0]  
 BV BND1      y[4,1]  
 BV BND1      y[4,2]  
 BV BND1      y[4,3]  
 BV BND1      y[5,0]  
 BV BND1      y[5,2]  
 BV BND1      y[5,3]  
 BV BND1      x[0,1]  
 BV BND1      x[0,2]  
 BV BND1      x[0,3]  
 BV BND1      x[0,4]  
 BV BND1      x[0,5]  
 BV BND1      x[1,0]  
 BV BND1      x[1,3]  
 BV BND1      x[1,4]  
 BV BND1      x[2,0]  
 BV BND1      x[2,3]  
 BV BND1      x[2,4]  
 BV BND1      x[2,5]  
 BV BND1      x[3,0]  
 BV BND1      x[3,1]  
 BV BND1      x[3,2]  
 BV BND1      x[3,4]  
 BV BND1      x[3,5]  
 BV BND1      x[4,0]  
 BV BND1      x[4,1]  
 BV BND1      x[4,2]  
 BV BND1      x[4,3]  
 BV BND1      x[5,0]  
 BV BND1      x[5,2]  
 BV BND1      x[5,3]  
 BV BND1      u[0,1]  
 BV BND1      u[0,2]  
 BV BND1      u[0,3]  
 BV BND1      u[0,4]  
 BV BND1      u[0,5]  
 BV BND1      u[1,0]  
 BV BND1      u[1,3]  
 BV BND1      u[1,4]  
 BV BND1      u[2,0]  
 BV BND1      u[2,3]  
 BV BND1      u[2,4]  
 BV BND1      u[2,5]  
 BV BND1      u[3,0]  
 BV BND1      u[3,1]  
 BV BND1      u[3,2]  
 BV BND1      u[3,4]  
 BV BND1      u[3,5]  
 BV BND1      u[4,0]  
 BV BND1      u[4,1]  
 BV BND1      u[4,2]  
 BV BND1      u[4,3]  
 BV BND1      u[5,0]  
 BV BND1      u[5,2]  
 BV BND1      u[5,3]  
 BV BND1      r[0,1]  
 BV BND1      r[0,2]  
 BV BND1      r[0,3]  
 BV BND1      r[0,4]  
 BV BND1      r[0,5]  
 BV BND1      r[1,0]  
 BV BND1      r[1,3]  
 BV BND1      r[1,4]  
 BV BND1      r[2,0]  
 BV BND1      r[2,3]  
 BV BND1      r[2,4]  
 BV BND1      r[2,5]  
 BV BND1      r[3,0]  
 BV BND1      r[3,1]  
 BV BND1      r[3,2]  
 BV BND1      r[3,4]  
 BV BND1      r[3,5]  
 BV BND1      r[4,0]  
 BV BND1      r[4,1]  
 BV BND1      r[4,2]  
 BV BND1      r[4,3]  
 BV BND1      r[5,0]  
 BV BND1      r[5,2]  
 BV BND1      r[5,3]  
ENDATA
